WARNING: for repeatability, setting FPU to use double precision
============================[ Problem Statistics ]=============================
|                                                                             |
|  Number of variables:           100                                         |
|  Number of clauses:             449                                         |
|  Parse time:                   0.00 s                                       |
|  Eliminated clauses:           0.00 Mb                                      |
|  Simplification time:          0.00 s                                       |
|                                                                             |
============================[ Search Statistics ]==============================
| Conflicts |          ORIGINAL         |          LEARNT          | Progress |
|           |    Vars  Clauses Literals |    Limit  Clauses Lit/Cl |          |
===============================================================================
|       100 |      98      447     1355 |      163      100      7 |  0.010 % |
|       250 |      98      447     1355 |      180      160      7 |  0.010 % |
===============================================================================
restarts              : 3
conflicts             : 318            (168611 /sec)
decisions             : 393            (0.00 % random) (208378 /sec)
propagations          : 7624           (4042418 /sec)
conflict literals     : 2061           (21.49 % deleted)
Memory used           : 13.00 MB
CPU time              : 0.001886 s

SATISFIABLE
